# Solution for model count
# Objective value = 10
z#1 0
z#2 0
z#3 0
z#4 1
z#5 0
z#6 0
z#7 0
z#8 0
z#9 0
z#10 1
z#11 0
z#12 1
z#13 1
z#14 1
z#15 0
z#16 0
z#17 1
z#18 1
z#19 0
z#20 1
z#21 1
z#22 0
z#23 1
z#24 0
x#24 0
x#23 2476
x#22 0
x#21 1645
x#20 488
x#19 0
x#18 455
x#17 545
x#16 0
x#15 0
x#14 101
x#13 381
x#12 136
x#11 0
x#10 654
x#9 0
x#8 0
x#7 0
x#6 0
x#5 0
x#4 3119
x#3 0
x#2 0
x#1 0
